(set-info :smt-lib-version 2.6)
(set-logic QF_FP)
(set-option :produce-models true)
(set-info :source |Random FP created by PyMPF|)
(set-info :license |https://www.gnu.org/licenses/gpl-3.0.html|)
(set-info :category random)
(set-info :status sat)
(declare-const x Float32)
(assert (= x ((_ to_fp 8 24) #xC9C114EC)))
;; x should be Float32(0xC9C114EC [Rational(-3163451, 2), -1581725.500000])

(declare-const y Float32)
(assert (= y (fp #b1 #b10010011 #b01010100001110011010100)))
;; y should be Float32(0xC9AA1CD4 [Rational(-2787125, 2), -1393562.500000])

(declare-const z Float32)
(assert (= z ((_ to_fp 8 24) #x807FFFFF)))
;; z should be Float32(0x807FFFFF [Rational(-8388607, 713623846352979940529142984724747568191373312), -0.000000])

(declare-const result Float32)
(assert (= result (fp.fma RTP x y z)))
(assert (= result ((_ to_fp 8 24) #x54004DA3)))
(check-sat)
(exit)
